c description: Tseitin formula on Random 4-regular graph of 38 vertices, with odd charge
c generator: CNFgen (0.9.2)
c copyright: (C) 2012-2022 Massimo Lauria <massimo.lauria@uniroma1.it>
c url: https://massimolauria.net/cnfgen
c command line: cnfgen tseitin 38
c
p cnf 76 304
1 2 3 4 0
1 2 -3 -4 0
1 -2 3 -4 0
1 -2 -3 4 0
-1 2 3 -4 0
-1 2 -3 4 0
-1 -2 3 4 0
-1 -2 -3 -4 0
5 6 7 8 0
5 6 -7 -8 0
5 -6 7 -8 0
5 -6 -7 8 0
-5 6 7 -8 0
-5 6 -7 8 0
-5 -6 7 8 0
-5 -6 -7 -8 0
9 10 11 12 0
9 10 -11 -12 0
9 -10 11 -12 0
9 -10 -11 12 0
-9 10 11 -12 0
-9 10 -11 12 0
-9 -10 11 12 0
-9 -10 -11 -12 0
9 13 14 -15 0
9 13 -14 15 0
9 -13 14 15 0
9 -13 -14 -15 0
-9 13 14 15 0
-9 13 -14 -15 0
-9 -13 14 -15 0
-9 -13 -14 15 0
16 17 18 19 0
16 17 -18 -19 0
16 -17 18 -19 0
16 -17 -18 19 0
-16 17 18 -19 0
-16 17 -18 19 0
-16 -17 18 19 0
-16 -17 -18 -19 0
20 21 22 23 0
20 21 -22 -23 0
20 -21 22 -23 0
20 -21 -22 23 0
-20 21 22 -23 0
-20 21 -22 23 0
-20 -21 22 23 0
-20 -21 -22 -23 0
13 24 25 -26 0
13 24 -25 26 0
13 -24 25 26 0
13 -24 -25 -26 0
-13 24 25 26 0
-13 24 -25 -26 0
-13 -24 25 -26 0
-13 -24 -25 26 0
10 27 28 29 0
10 27 -28 -29 0
10 -27 28 -29 0
10 -27 -28 29 0
-10 27 28 -29 0
-10 27 -28 29 0
-10 -27 28 29 0
-10 -27 -28 -29 0
16 30 31 -32 0
16 30 -31 32 0
16 -30 31 32 0
16 -30 -31 -32 0
-16 30 31 32 0
-16 30 -31 -32 0
-16 -30 31 -32 0
-16 -30 -31 32 0
17 33 34 -35 0
17 33 -34 35 0
17 -33 34 35 0
17 -33 -34 -35 0
-17 33 34 35 0
-17 33 -34 -35 0
-17 -33 34 -35 0
-17 -33 -34 35 0
14 20 36 37 0
14 20 -36 -37 0
14 -20 36 -37 0
14 -20 -36 37 0
-14 20 36 -37 0
-14 20 -36 37 0
-14 -20 36 37 0
-14 -20 -36 -37 0
24 38 39 40 0
24 38 -39 -40 0
24 -38 39 -40 0
24 -38 -39 40 0
-24 38 39 -40 0
-24 38 -39 40 0
-24 -38 39 40 0
-24 -38 -39 -40 0
41 42 43 44 0
41 42 -43 -44 0
41 -42 43 -44 0
41 -42 -43 44 0
-41 42 43 -44 0
-41 42 -43 44 0
-41 -42 43 44 0
-41 -42 -43 -44 0
5 18 27 -45 0
5 18 -27 45 0
5 -18 27 45 0
5 -18 -27 -45 0
-5 18 27 45 0
-5 18 -27 -45 0
-5 -18 27 -45 0
-5 -18 -27 45 0
46 47 48 49 0
46 47 -48 -49 0
46 -47 48 -49 0
46 -47 -48 49 0
-46 47 48 -49 0
-46 47 -48 49 0
-46 -47 48 49 0
-46 -47 -48 -49 0
30 50 51 -52 0
30 50 -51 52 0
30 -50 51 52 0
30 -50 -51 -52 0
-30 50 51 52 0
-30 50 -51 -52 0
-30 -50 51 -52 0
-30 -50 -51 52 0
38 45 53 -54 0
38 45 -53 54 0
38 -45 53 54 0
38 -45 -53 -54 0
-38 45 53 54 0
-38 45 -53 -54 0
-38 -45 53 -54 0
-38 -45 -53 54 0
31 55 56 57 0
31 55 -56 -57 0
31 -55 56 -57 0
31 -55 -56 57 0
-31 55 56 -57 0
-31 55 -56 57 0
-31 -55 56 57 0
-31 -55 -56 -57 0
33 46 58 -59 0
33 46 -58 59 0
33 -46 58 59 0
33 -46 -58 -59 0
-33 46 58 59 0
-33 46 -58 -59 0
-33 -46 58 -59 0
-33 -46 -58 59 0
11 55 60 61 0
11 55 -60 -61 0
11 -55 60 -61 0
11 -55 -60 61 0
-11 55 60 -61 0
-11 55 -60 61 0
-11 -55 60 61 0
-11 -55 -60 -61 0
1 21 62 63 0
1 21 -62 -63 0
1 -21 62 -63 0
1 -21 -62 63 0
-1 21 62 -63 0
-1 21 -62 63 0
-1 -21 62 63 0
-1 -21 -62 -63 0
50 58 64 65 0
50 58 -64 -65 0
50 -58 64 -65 0
50 -58 -64 65 0
-50 58 64 -65 0
-50 58 -64 65 0
-50 -58 64 65 0
-50 -58 -64 -65 0
6 19 25 -66 0
6 19 -25 66 0
6 -19 25 66 0
6 -19 -25 -66 0
-6 19 25 66 0
-6 19 -25 -66 0
-6 -19 25 -66 0
-6 -19 -25 66 0
41 51 56 -67 0
41 51 -56 67 0
41 -51 56 67 0
41 -51 -56 -67 0
-41 51 56 67 0
-41 51 -56 -67 0
-41 -51 56 -67 0
-41 -51 -56 67 0
34 68 69 -70 0
34 68 -69 70 0
34 -68 69 70 0
34 -68 -69 -70 0
-34 68 69 70 0
-34 68 -69 -70 0
-34 -68 69 -70 0
-34 -68 -69 70 0
62 67 71 -72 0
62 67 -71 72 0
62 -67 71 72 0
62 -67 -71 -72 0
-62 67 71 72 0
-62 67 -71 -72 0
-62 -67 71 -72 0
-62 -67 -71 72 0
52 53 59 -68 0
52 53 -59 68 0
52 -53 59 68 0
52 -53 -59 -68 0
-52 53 59 68 0
-52 53 -59 -68 0
-52 -53 59 -68 0
-52 -53 -59 68 0
2 47 64 73 0
2 47 -64 -73 0
2 -47 64 -73 0
2 -47 -64 73 0
-2 47 64 -73 0
-2 47 -64 73 0
-2 -47 64 73 0
-2 -47 -64 -73 0
3 28 71 -74 0
3 28 -71 74 0
3 -28 71 74 0
3 -28 -71 -74 0
-3 28 71 74 0
-3 28 -71 -74 0
-3 -28 71 -74 0
-3 -28 -71 74 0
7 22 63 -75 0
7 22 -63 75 0
7 -22 63 75 0
7 -22 -63 -75 0
-7 22 63 75 0
-7 22 -63 -75 0
-7 -22 63 -75 0
-7 -22 -63 75 0
15 42 66 76 0
15 42 -66 -76 0
15 -42 66 -76 0
15 -42 -66 76 0
-15 42 66 -76 0
-15 42 -66 76 0
-15 -42 66 76 0
-15 -42 -66 -76 0
4 32 48 -65 0
4 32 -48 65 0
4 -32 48 65 0
4 -32 -48 -65 0
-4 32 48 65 0
-4 32 -48 -65 0
-4 -32 48 -65 0
-4 -32 -48 65 0
8 36 49 72 0
8 36 -49 -72 0
8 -36 49 -72 0
8 -36 -49 72 0
-8 36 49 -72 0
-8 36 -49 72 0
-8 -36 49 72 0
-8 -36 -49 -72 0
35 43 69 75 0
35 43 -69 -75 0
35 -43 69 -75 0
35 -43 -69 75 0
-35 43 69 -75 0
-35 43 -69 75 0
-35 -43 69 75 0
-35 -43 -69 -75 0
44 60 73 -76 0
44 60 -73 76 0
44 -60 73 76 0
44 -60 -73 -76 0
-44 60 73 76 0
-44 60 -73 -76 0
-44 -60 73 -76 0
-44 -60 -73 76 0
26 57 61 70 0
26 57 -61 -70 0
26 -57 61 -70 0
26 -57 -61 70 0
-26 57 61 -70 0
-26 57 -61 70 0
-26 -57 61 70 0
-26 -57 -61 -70 0
29 39 54 74 0
29 39 -54 -74 0
29 -39 54 -74 0
29 -39 -54 74 0
-29 39 54 -74 0
-29 39 -54 74 0
-29 -39 54 74 0
-29 -39 -54 -74 0
12 23 37 40 0
12 23 -37 -40 0
12 -23 37 -40 0
12 -23 -37 40 0
-12 23 37 -40 0
-12 23 -37 40 0
-12 -23 37 40 0
-12 -23 -37 -40 0
